\ LP format - for model browsing. Use MPS format to capture full model detail.
Minimize
  1600 p[1] + 970 p[2]
Subject To
 c1d_ub[0]: - 0.4000133542359474 p[2] - 0.7330030213373974 p[3]
   - 0.4000133542359474 omega[1] - 0.7330030213373974 omega[2]
   <= 88.86363244006994
 c1d_ub[1]: - 0.3961041711585336 p[2] + 0.2752714581371987 p[3]
   - 0.3961041711585336 omega[1] + 0.2752714581371987 omega[2]
   <= 0.3257932969559517
 c1d_ub[2]: - 0.6056515644390974 p[2] - 0.2755647551403193 p[3]
   - 0.6056515644390974 omega[1] - 0.2755647551403193 omega[2]
   <= 89.07199676173369
 c1d_lb[0]: - 0.4000133542359474 p[2] - 0.7330030213373974 p[3]
   - 0.4000133542359474 omega[1] - 0.7330030213373974 omega[2]
   >= -91.13636755993006
 c1d_lb[1]: - 0.3961041711585336 p[2] + 0.2752714581371987 p[3]
   - 0.3961041711585336 omega[1] + 0.2752714581371987 omega[2]
   >= -0.6742067030440483
 c1d_lb[2]: - 0.6056515644390974 p[2] - 0.2755647551403193 p[3]
   - 0.6056515644390974 omega[1] - 0.2755647551403193 omega[2]
   >= -90.92800323826631
 c1b: p[1] + p[2] + p[3] + omega[0] + omega[1] + omega[2] = 3.15
Bounds
 p[1] <= 20
 p[2] <= 20
 p[3] = 0
 omega[0] = -0.0112353452962866
 omega[1] = 0.00729310766851092
 omega[2] = -0.0164658334464449
End
